
(set-logic HORN)
(declare-fun zero_83 () Int)
(declare-fun succ_81 (Int) Int)
(declare-fun diseqInt (Int Int) Bool)
(declare-fun p_230 (Int Int) Bool)
(declare-fun iszero_81 (Int) Bool)
(declare-fun issucc_81 (Int) Bool)
(assert (forall ((x_34268 Int))
	(p_230 x_34268 (succ_81 x_34268))))
(assert (iszero_81 zero_83))
(assert (forall ((x_34270 Int))
	(issucc_81 (succ_81 x_34270))))
(assert (forall ((x_34271 Int))
	(diseqInt zero_83 (succ_81 x_34271))))
(assert (forall ((x_34272 Int))
	(diseqInt (succ_81 x_34272) zero_83)))
(assert (forall ((x_34273 Int) (x_34274 Int))
	(=> (diseqInt x_34273 x_34274) (diseqInt (succ_81 x_34273) (succ_81 x_34274)))))
(declare-datatypes ((Integer_4 0)) (((P_229 (projP_8 Int)) (N_69 (projN_8 Int)))))
(declare-fun diseqInteger_4 (Integer_4 Integer_4) Bool)
(declare-fun projP_9 (Int Integer_4) Bool)
(declare-fun projN_9 (Int Integer_4) Bool)
(declare-fun isP_5 (Integer_4) Bool)
(declare-fun isN_4 (Integer_4) Bool)
(assert (forall ((x_34275 Int))
	(projP_9 x_34275 (P_229 x_34275))))
(assert (forall ((x_34277 Int))
	(projN_9 x_34277 (N_69 x_34277))))
(assert (forall ((x_34279 Int))
	(isP_5 (P_229 x_34279))))
(assert (forall ((x_34280 Int))
	(isN_4 (N_69 x_34280))))
(assert (forall ((x_34281 Int) (x_34282 Int))
	(diseqInteger_4 (P_229 x_34281) (N_69 x_34282))))
(assert (forall ((x_34283 Int) (x_34284 Int))
	(diseqInteger_4 (N_69 x_34283) (P_229 x_34284))))
(assert (forall ((x_34285 Int) (x_34286 Int))
	(=> (diseqInt x_34285 x_34286) (diseqInteger_4 (P_229 x_34285) (P_229 x_34286)))))
(assert (forall ((x_34287 Int) (x_34288 Int))
	(=> (diseqInt x_34287 x_34288) (diseqInteger_4 (N_69 x_34287) (N_69 x_34288)))))
(declare-fun plus_74 (Int Int Int) Bool)
(assert (forall ((x_34229 Int) (z_1239 Int) (y_1336 Int))
	(=> (plus_74 x_34229 z_1239 y_1336) (plus_74 (succ_81 x_34229) (succ_81 z_1239) y_1336))))
(assert (forall ((x_34230 Int))
	(plus_74 x_34230 zero_83 x_34230)))
(declare-fun x_34217 (Integer_4 Int Int) Bool)
(assert (forall ((x_34219 Int) (z_1240 Int) (fail_16 Integer_4))
	(=> (x_34217 fail_16 x_34219 z_1240) (x_34217 fail_16 (succ_81 x_34219) (succ_81 z_1240)))))
(assert (forall ((x_34221 Int))
	(x_34217 (N_69 (succ_81 x_34221)) zero_83 (succ_81 x_34221))))
(assert (forall ((x_34220 Int))
	(x_34217 (P_229 (succ_81 x_34220)) (succ_81 x_34220) zero_83)))
(assert (x_34217 (P_229 zero_83) zero_83 zero_83))
(declare-fun plus_75 (Integer_4 Integer_4 Integer_4) Bool)
(assert (forall ((x_34244 Int) (x_34245 Int) (n_70 Int) (m_27 Int))
	(=> (and (plus_74 x_34244 (succ_81 zero_83) m_27) (plus_74 x_34245 x_34244 n_70)) (plus_75 (N_69 x_34245) (N_69 m_27) (N_69 n_70)))))
(assert (forall ((x_34246 Integer_4) (x_34247 Int) (n_71 Int) (m_27 Int))
	(=> (and (plus_74 x_34247 (succ_81 zero_83) m_27) (x_34217 x_34246 n_71 x_34247)) (plus_75 x_34246 (N_69 m_27) (P_229 n_71)))))
(assert (forall ((x_34249 Integer_4) (x_34250 Int) (o_3 Int) (m_28 Int))
	(=> (and (plus_74 x_34250 (succ_81 zero_83) o_3) (x_34217 x_34249 m_28 x_34250)) (plus_75 x_34249 (P_229 m_28) (N_69 o_3)))))
(assert (forall ((x_34253 Int) (n_72 Int) (m_28 Int))
	(=> (plus_74 x_34253 m_28 n_72) (plus_75 (P_229 x_34253) (P_229 m_28) (P_229 n_72)))))
(assert (forall ((x_34254 Integer_4) (x_34255 Integer_4) (x_34256 Integer_4) (x_34257 Integer_4) (x_34223 Integer_4) (y_1339 Integer_4) (z_1241 Integer_4))
	(=> (and true (diseqInteger_4 x_34255 x_34257) (plus_75 x_34254 y_1339 z_1241) (plus_75 x_34255 x_34223 x_34254) (plus_75 x_34256 x_34223 y_1339) (plus_75 x_34257 x_34256 z_1241)) false)))
(assert (forall ((x_34258 Int) (x_34259 Int) (x_34260 Int) (x_34261 Int) (x_34224 Int) (y_1340 Int) (z_1242 Int))
	(=> (and true (diseqInt x_34259 x_34261) (plus_74 x_34258 y_1340 z_1242) (plus_74 x_34259 x_34224 x_34258) (plus_74 x_34260 x_34224 y_1340) (plus_74 x_34261 x_34260 z_1242)) false)))
(assert (forall ((x_34262 Int) (x_34263 Int) (x_34225 Int) (y_1341 Int))
	(=> (and true (diseqInt x_34262 x_34263) (plus_74 x_34262 x_34225 y_1341) (plus_74 x_34263 y_1341 x_34225)) false)))
(assert (forall ((x_34264 Int) (x_34226 Int))
	(=> (and true (diseqInt x_34264 x_34226) (plus_74 x_34264 x_34226 zero_83)) false)))
(assert (forall ((x_34265 Int) (x_34227 Int))
	(=> (and true (diseqInt x_34265 x_34227) (plus_74 x_34265 zero_83 x_34227)) false)))
(check-sat)
